SAT
4 -94 -79 30 -28 -2 -52 98 -15 12 -99 97 -69 93 23 -26 22 20 -34 27 -75 38 59 6 66 72 -53 63 -36 42 -13 -64 -49 -57 16 -87 -61 -40 18 -95 60 78 85 41 -80 19 70 43 31 90 5 25 81 -86 -51 -39 29 35 96 100 46 -68 -45 -9 76 11 14 -32 54 74 -55 73 -44 -91 7 -83 -47 92 3 -8 17 -48 -77 -10 -24 37 58 56 21 88 67 84 -65 -33 -1 -62 -71 -82 50 -89 0
